3185 2972 2972 2919 2795 2776 2693 2609 2570 2531 2507 2429 2364 2303 2239 2167 2113 2001 1936 1898 1881 1837 1790 1735 1729 1702 1683 1656 1626 1611 1593 1586 1567 1551 1525 1494 1487 1479 1459 1453 1433 1426 1415 1405 1394 1385 1373 1363 1360 1345 1342 1334 1324 1316 1305 1294 1292 1283 1281 1279 1278 1268 1268 1263 1260 1252 1251 1243 1239 1236 1230 1222 1216 1216 1212 1211 1209 1207 1206 1202 1202 1199 1199 1197 1196 1194 1194 1188 1187 1186 1186 1186 1185 1185 1184 1184 1183 1183 1183 1183 1176 1176 1175 1175 1175 1173 1173 1171 1170 1165 1162 1158 1145 1139 1137 1137 1129 1126 1124 1123 1117 1117 1117 1110 1110 1109 1109 1109 1109 1109 1109 1108 1108 1108 1105 1105 1105 1105 1105 1104 1104 1104 1104 1104 1104 1104 1104 1104 1104 1104 1104 1104 1104 1104 1104 1104 1104 1104 1104 1104 1104 1104 1104 1104 1104 1104 1104 1104 1104 1104 1104 1104 1104 1104 1104 1104 1104 1104 1104 1104 1104 1104 1104 1104 1104 1104 1104 1104 1104 1104 1104 1104 1104 1104 1104 1104 1104 1104 1104 1104 1104 1104 1104 1103 1103 1103 1103 1102 1102 1102 1102 1102 1102 1102 1102 1102 1102 1102 1102 1102 1102 1102 1102 1102 1102 1102 1102 1102 1102 1102 1102 1102 1102 1102 1102 1102 1102 1102 1102 1102 1102 1102 1102 1102 1102 1102 1102 1102 1102 1102 1102 1102 1102 1102 1102 1102 1102 1102 1102 1102 1102 1102 1102 1102 1102 1102 1102 1102 1102 1102 1102 1102 1102 1102 1102 1102 1102 1102 1102 1102 1102 1102 1102 1102 1102 1102 1102 1102 1102 1102 1102 1102 1102 1102 1102 1102 1102 1102 1102 1102 1102 1102 1102 1102 1102 1102 1102 1102 1102 1102 1102 1102 1102 1102 1102 1102 1102 1102 1102 1102 1102 1102 1102 1102 1102 1102 1102 1102 1102 1102 1102 1102 1102 1102 1102 1102 1102 1102 1102 1102 1102 1102 1102 1102 1102 1102 1102 1102 1102 1102 1102 1102 1102 1102 1102 1102 1102 1102 1102 1102 1102 1102 1102 1102 1102 1102 1102 1102 1102 1102 1102 1102 1102 1102 1102 1102 1102 1102 1102 1102 1102 1102 1102 1102 1102 1102 1102 1102 1102 1102 1102 1102 1102 1102 1102 1102 1102 1102 1102 1102 1102 1102 1102 1102 1102 1102 1102 1102 1102 1102 1102 1102 1102 1102 1102 1102 1102 1102 1102 1102 1102 1102 1102 1102 1102 1102 1102 1102 1102 1102 1102 1102 1102 1102 1102 1102 1102 1102 1102 1102 1102 1102 1102 1102 1102 1102 1102 1102 1102 1102 1102 1102 1102 1102 1102 1102 1102 1102 1102 1102 1102 1102 1102 1102 1102 1102 1102 1102 1102 1102 1102 1102 1102 1102 1102 1102 1102 1102 1102 1102 1102 1102 1102 1102 1102 1102 1102 1102 1102 1102 1102 1102 1102 1102 1102 1102 1102 1102 1102 1102 1102 1102 1102 1102 1102 1102 1102 1102 1102 1102 1102 1102 1102 1102 1102 1102 1102 1102 1102 1102 1102 1102 1102 1102 1102 1102 1102 1102 1102 1102 1102 1102 1102 1102 1102 1102 1102 1102 1102 1102 1102 1102 1102 1102 1102 1102 1102 1102 1102 1102 1102 1102 1102 1102 1102 1102 1102 1102 1102 1102 1102 1102 1102 1102 1102 1102 1102 1102 1102 1102 1102 1102 1102 1102 1102 1102 1102 1102 1102 1102 1102 1102 1102 1102 1102 1102 1102 1102 1102 1102 1102 1102 1102 1102 1102 1102 1102 1102 1102 1102 1102 1102 1102 1102 1102 1102 1102 1102 1102 1102 1102 1102 1102 1102 1102 1102 1102 1102 1102 1102 1102 1102 1102 1102 1102 1102 1102 1102 1102 1102 1102 1102 1102 1102 1102 1102 1102 1102 1102 1102 1102 1102 1102 1102 1102 1102 1102 1102 1102 1102 1102 1102 1102 1102 1102 1102 1102 1102 1102 1102 1102 1102 1102 1102 1102 1102 1102 1102 1102 1102 1102 1102 1102 1102 1102 1102 1102 1102 1102 1102 1102 1102 1102 1102 1102 1102 1102 1102 1102 1102 1102 1102 1102 1102 1102 1102 1102 1102 1102 1102 1102 1102 1102 1102 1102 1102 1102 1102 1102 1102 1102 1102 1102 1102 1102 1102 1102 1102 1102 1102 1102 1102 1102 1102 1102 1102 1102 1102 1102 1102 1102 1102 1102 1102 1102 1102 1102 1102 1102 1102 1102 1102 1102 1102 1102 1102 1102 1102 1102 1102 1102 1102 1102 1102 1102 1102 1102 1102 1102 1102 1102 1102 1102 1102 1102 1102 1102 1102 1102 1102 1102 1102 1102 1102 1102 1102 1102 1102 1102 1102 1102 1102 1102 1102 1102 1102 1102 1102 1102 1102 1102 1102 1102 1102 1102 1102 1102 1102 1102 1102 1102 1102 1102 1102 1102 1102 1102 1102 1102 1102 1102 1102 1102 1102 1102 1102 1102 1102 1102 1102 1102 1102 1102 1102 1102 1102 1102 1102 1099 1099 1099 1099 1099 1099 1099 1099 1099 1099 1099 1099 1099 1099 1099 1099 1099 1099 1099 1099 1099 1099 1099 1099 1099 1099 1099 1099 1099 1099 1099 1099 1099 1099 1099 1099 1099 1099 1099 1099 1099 1099 1099 1099 1099 1099 1099 1099 1099 1099 1099 1099 1099 1099 1099 1099 1099 1099 1099 1099 1099 1099 1099 1099 1099 1099 1099 1099 1099 1099 1099 1099 1099 1099 1099 1099 1099 1099 1099 1099 1099 1099 1099 1099 1099 1099 1099 1099 1099 1099 1099 1099 1099 1099 1099 1099 1099 1099 1099 1099 1099 1099 1099 1099 1099 1099 1099 1099 1099 1099 1099 1099 1099 1099 1099 1099 1099 1099 1099 1099 1099 1099 1099 1099 1099 1099 1099 1099 1099 1099 1099 1099 1099 1099 1099 1099 1099 1099 1099 1099 1099 1099 1099 1099 1099 1099 1099 1099 1099 1099 1099 1099 1099 1099 1099 1099 1099 1099 1099 1099 1099 1099 1099 1099 1099 1099 1099 1099 1099 1099 1099 1099 1099 1099 1099 1099 1099 1099 1099 1099 1099 1099 1099 1099 1099 1099 1099 1099 1099 1099 1099 1099 1099 1099 1099 1099 1099 1099 1099 1099 1099 1099 1099 1099 1099 1099 1099 1099 1099 1099 1099 1099 1099 1099 1099 1099 1099 1099 1099 1099 1099 1099 1099 1099 1099 1099 1099 1099 1099 1099 1099 1099 1099 1099 1099 1099 1099 1099 1099 1099 1099 1099 1099 1099 1099 1099 1099 1099 1099 1099 1099 1099 1099 1099 1099 1099 1099 1099 1099 1099 1099 1099 1099 1099 1099 1099 1099 1099 1099 1099 1099 1099 1099 1099 1099 1099 1099 1099 1099 1099 1099 1099 1099 1099 1099 1099 1099 1099 1099 1099 1099 1099 1099 1099 1099 1099 1099 1099 1099 1099 1099 1099 1099 1099 1099 1099 1099 1099 1099 1099 1099 1099 1099 1099 1099 1099 1099 1099 1099 1099 1099 1099 1099 1099 1099 1099 1099 1099 1099 1099 1099 1099 1099 1099 1099 1099 1099 1099 1099 1099 1099 1099 1099 1099 1099 1099 1099 1099 1099 1099 1099 1099 1099 1099 1099 1099 1099 1099 1099 1099 1099 1099 1099 1099 1099 1099 1099 1099 1099 1099 1099 1099 1099 1099 1099 1099 1099 1099 1099 1099 1099 1099 1099 1099 1099 1099 1099 1099 1099 1099 1099 1099 1099 1099 1099 1099 1099 1099 1099 1099 1099 1099 1099 1099 1099 1099 1099 1099 1099 1099 1099 1099 1099 1099 1099 1099 1099 1099 1099 1099 1099 1099 1099 1099 1099 1099 1099 1099 1099 1099 1099 1099 1099 1099 1099 1099 1099 1099 1099 1099 1099 1099 1099 1099 1099 1099 1099 1099 1099 1099 1099 1099 1099 1099 1099 1099 1099 1099 1099 1099 1099 1099 1099 1099 1099 1099 1099 1099 1099 1099 1099 1099 1099 1099 1099 1099 1099 1099 1099 1099 1099 1099 1099 1099 1099 1099 1099 1099 1099 1099 1099 1099 1099 1099 1099 1099 1099 1099 1099 1099 1099 1099 1099 1099 1099 1099 1099 1099 1099 1099 1099 1099 1099 1099 1099 1099 1099 1099 1099 1099 1099 1099 1099 1099 1099 1099 1099 1099 1099 1099 1099 1099 1099 1099 1099 1099 1099 1099 1099 1099 1099 1099 1099 1099 1099 1099 1099 1099 1099 1099 1099 1099 1099 1099 1099 1099 1099 1099 1099 1099 1099 1099 1099 1099 1099 1099 1099 1099 1099 1099 1099 1099 1099 1099 1099 1099 1099 1099 1099 1099 1099 1099 1099 1099 1099 1099 1099 1099 1099 1099 1099 1099 1099 1099 1099 1099 1099 1099 1099 1099 1099 1099 1099 1099 1099 1099 1099 1099 1099 1099 1099 1099 1099 1099 1099 1099 1099 1099 1099 1099 1099 1099 1099 1099 1099 1099 1099 1099 1099 1099 1099 1099 1099 1099 1099 1099 1099 1099 1099 1099 1099 1099 1099 1099 1099 1099 1099 1099 1099 1099 1099 1099 1099 1099 1099 1099 1099 1099 1099 1099 1099 1099 1099 1099 1099 1099 1099 1099 1099 1099 1099 1099 
3554 3365 3247 3144 3046 2968 2916 2839 2787 2742 2669 2585 2509 2445 2369 2305 2240 2172 2109 2044 1983 1924 1883 1842 1811 1778 1744 1712 1683 1654 1628 1612 1597 1581 1563 1541 1521 1504 1489 1475 1461 1450 1438 1428 1417 1405 1395 1386 1375 1368 1360 1351 1342 1334 1325 1313 1304 1301 1292 1284 1281 1279 1278 1276 1268 1265 1259 1253 1250 1244 1240 1235 1228 1224 1219 1215 1211 1211 1209 1206 1204 1201 1201 1201 1198 1196 1195 1195 1194 1191 1187 1186 1185 1185 1185 1184 1184 1183 1183 1183 1182 1182 1182 1175 1175 1174 1174 1174 1173 1172 1170 1167 1163 1160 1154 1142 1138 1136 1135 1128 1124 1123 1122 1118 1116 1115 1109 1109 1109 1109 1109 1108 1108 1108 1108 1107 1107 1105 1105 1104 1104 1104 1104 1104 1104 1104 1104 1104 1104 1104 1104 1104 1104 1104 1104 1104 1104 1104 1104 1104 1104 1104 1104 1104 1104 1104 1104 1104 1104 1104 1104 1104 1104 1104 1104 1104 1104 1104 1104 1104 1104 1104 1104 1104 1104 1104 1104 1104 1104 1104 1104 1104 1104 1104 1104 1104 1104 1104 1104 1104 1104 1104 1104 1103 1103 1103 1103 1102 1102 1102 1102 1102 1102 1102 1102 1102 1102 1102 1102 1102 1102 1102 1102 1102 1102 1102 1102 1102 1102 1102 1102 1102 1102 1102 1102 1102 1102 1102 1102 1102 1102 1102 1102 1102 1102 1102 1102 1102 1102 1102 1102 1102 1102 1102 1102 1102 1102 1102 1102 1102 1102 1102 1102 1102 1102 1102 1102 1102 1102 1102 1102 1102 1102 1102 1102 1102 1102 1102 1102 1102 1102 1102 1102 1102 1102 1102 1102 1102 1102 1102 1102 1102 1102 1102 1102 1102 1102 1102 1102 1102 1102 1102 1102 1102 1102 1102 1102 1102 1102 1102 1102 1102 1102 1102 1102 1102 1102 1102 1102 1102 1102 1102 1102 1102 1102 1102 1102 1102 1102 1102 1102 1102 1102 1102 1102 1102 1102 1102 1102 1102 1102 1102 1102 1102 1102 1102 1102 1102 1102 1102 1102 1102 1102 1102 1102 1102 1102 1102 1102 1102 1102 1102 1102 1102 1102 1102 1102 1102 1102 1102 1102 1102 1102 1102 1102 1102 1102 1102 1102 1102 1102 1102 1102 1102 1102 1102 1102 1102 1102 1102 1102 1102 1102 1102 1102 1102 1102 1102 1102 1102 1102 1102 1102 1102 1102 1102 1102 1102 1102 1102 1102 1102 1102 1102 1102 1102 1102 1102 1102 1102 1102 1102 1102 1102 1102 1102 1102 1102 1102 1102 1102 1102 1102 1102 1102 1102 1102 1102 1102 1102 1102 1102 1102 1102 1102 1102 1102 1102 1102 1102 1102 1102 1102 1102 1102 1102 1102 1102 1102 1102 1102 1102 1102 1102 1102 1102 1102 1102 1102 1102 1102 1102 1102 1102 1102 1102 1102 1102 1102 1102 1102 1102 1102 1102 1102 1102 1102 1102 1102 1102 1102 1102 1102 1102 1102 1102 1102 1102 1102 1102 1102 1102 1102 1102 1102 1102 1102 1102 1102 1102 1102 1102 1102 1102 1102 1102 1102 1102 1102 1102 1102 1102 1102 1102 1102 1102 1102 1102 1102 1102 1102 1102 1102 1102 1102 1102 1102 1102 1102 1102 1102 1102 1102 1102 1102 1102 1102 1102 1102 1102 1102 1102 1102 1102 1102 1102 1102 1102 1102 1102 1102 1102 1102 1102 1102 1102 1102 1102 1102 1102 1102 1102 1102 1102 1102 1102 1102 1102 1102 1102 1102 1102 1102 1102 1102 1102 1102 1102 1102 1102 1102 1102 1102 1102 1102 1102 1102 1102 1102 1102 1102 1102 1102 1102 1102 1102 1102 1102 1102 1102 1102 1102 1102 1102 1102 1102 1102 1102 1102 1102 1102 1102 1102 1102 1102 1102 1102 1102 1102 1102 1102 1102 1102 1102 1102 1102 1102 1102 1102 1102 1102 1102 1102 1102 1102 1102 1102 1102 1102 1102 1102 1102 1102 1102 1102 1102 1102 1102 1102 1102 1102 1102 1102 1102 1102 1102 1102 1102 1102 1102 1102 1102 1102 1102 1102 1102 1102 1102 1102 1102 1102 1102 1102 1102 1102 1102 1102 1102 1102 1102 1102 1102 1102 1102 1102 1102 1102 1102 1102 1102 1102 1102 1102 1102 1102 1102 1102 1102 1102 1102 1102 1102 1102 1102 1102 1102 1102 1102 1102 1102 1102 1102 1102 1102 1102 1102 1102 1102 1102 1102 1102 1102 1102 1102 1102 1102 1102 1102 1102 1102 1102 1102 1102 1102 1102 1102 1102 1102 1102 1102 1102 1102 1102 1102 1102 1102 1102 1102 1102 1102 1102 1102 1102 1102 1102 1102 1102 1102 1102 1102 1102 1102 1102 1102 1102 1102 1102 1102 1102 1102 1102 1102 1102 1102 1102 1102 1102 1102 1102 1102 1102 1102 1102 1102 1102 1102 1102 1102 1102 1102 1102 1102 1102 1102 1102 1102 1102 1102 1102 1102 1102 1102 1102 1102 1102 1102 1102 1102 1102 1102 1102 1102 1102 1102 1102 1102 1102 1102 1101 1101 1101 1099 1099 1099 1099 1099 1099 1099 1099 1099 1099 1099 1099 1099 1099 1099 1099 1099 1099 1099 1099 1099 1099 1099 1099 1099 1099 1099 1099 1099 1099 1099 1099 1099 1099 1099 1099 1099 1099 1099 1099 1099 1099 1099 1099 1099 1099 1099 1099 1099 1099 1099 1099 1099 1099 1099 1099 1099 1099 1099 1099 1099 1099 1099 1099 1099 1099 1099 1099 1099 1099 1099 1099 1099 1099 1099 1099 1099 1099 1099 1099 1099 1099 1099 1099 1099 1099 1099 1099 1099 1099 1099 1099 1099 1099 1099 1099 1099 1099 1099 1099 1099 1099 1099 1099 1099 1099 1099 1099 1099 1099 1099 1099 1099 1099 1099 1099 1099 1099 1099 1099 1099 1099 1099 1099 1099 1099 1099 1099 1099 1099 1099 1099 1099 1099 1099 1099 1099 1099 1099 1099 1099 1099 1099 1099 1099 1099 1099 1099 1099 1099 1099 1099 1099 1099 1099 1099 1099 1099 1099 1099 1099 1099 1099 1099 1099 1099 1099 1099 1099 1099 1099 1099 1099 1099 1099 1099 1099 1099 1099 1099 1099 1099 1099 1099 1099 1099 1099 1099 1099 1099 1099 1099 1099 1099 1099 1099 1099 1099 1099 1099 1099 1099 1099 1099 1099 1099 1099 1099 1099 1099 1099 1099 1099 1099 1099 1099 1099 1099 1099 1099 1099 1099 1099 1099 1099 1099 1099 1099 1099 1099 1099 1099 1099 1099 1099 1099 1099 1099 1099 1099 1099 1099 1099 1099 1099 1099 1099 1099 1099 1099 1099 1099 1099 1099 1099 1099 1099 1099 1099 1099 1099 1099 1099 1099 1099 1099 1099 1099 1099 1099 1099 1099 1099 1099 1099 1099 1099 1099 1099 1099 1099 1099 1099 1099 1099 1099 1099 1099 1099 1099 1099 1099 1099 1099 1099 1099 1099 1099 1099 1099 1099 1099 1099 1099 1099 1099 1099 1099 1099 1099 1099 1099 1099 1099 1099 1099 1099 1099 1099 1099 1099 1099 1099 1099 1099 1099 1099 1099 1099 1099 1099 1099 1099 1099 1099 1099 1099 1099 1099 1099 1099 1099 1099 1099 1099 1099 1099 1099 1099 1099 1099 1099 1099 1099 1099 1099 1099 1099 1099 1099 1099 1099 1099 1099 1099 1099 1099 1099 1099 1099 1099 1099 1099 1099 1099 1099 1099 1099 1099 1099 1099 1099 1099 1099 1099 1099 1099 1099 1099 1099 1099 1099 1099 1099 1099 1099 1099 1099 1099 1099 1099 1099 1099 1099 1099 1099 1099 1099 1099 1099 1099 1099 1099 1099 1099 1099 1099 1099 1099 1099 1099 1099 1099 1099 1099 1099 1099 1099 1099 1099 1099 1099 1099 1099 1099 1099 1099 1099 1099 1099 1099 1099 1099 1099 1099 1099 1099 1099 1099 1099 1099 1099 1099 1099 1099 1099 1099 1099 1099 1099 1099 1099 1099 1099 1099 1099 1099 1099 1099 1099 1099 1099 1099 1099 1099 1099 1099 1099 1099 1099 1099 1099 1099 1099 1099 1099 1099 1099 1099 1099 1099 1099 1099 1099 1099 1099 1099 1099 1099 1099 1099 1099 1099 1099 1099 1099 1099 1099 1099 1099 1099 1099 1099 1099 1099 1099 1099 1099 1099 1099 1099 1099 1099 1099 1099 1099 1099 1099 1099 1099 1099 1099 1099 1099 1099 1099 1099 1099 1099 1099 1099 1099 1099 1099 1099 1099 1099 1099 1099 1099 1099 1099 1099 1099 1099 1099 1099 1099 1099 1099 1099 1099 1099 1099 1099 1099 1099 1099 1099 1099 1099 1099 1099 1099 1099 1099 1099 1099 1099 1099 1099 1099 1099 1099 1099 1099 1099 1099 1099 1099 1099 1099 1099 1099 1099 1099 1099 1099 1099 1099 1099 1099 1099 1099 1099 1099 1099 1099 1099 1099 1099 1099 1099 1099 1099 1099 1099 1099 1099 1099 1099 1099 1099 1099 1099 1099 1099 1099 1099 1099 1099 1099 1099 1099 1099 1099 1099 1099 1099 1099 1099 1099 1099 1099 1099 1099 1099 1099 1099 1099 1099 1099 1099 1099 1099 1099 1099 1099 1099 1099 1099 1099 1099 1099 1099 1099 1099 1099 1099 